1 of 1 MIP starts provided solutions.
MIP start 'm1' defined initial solution with objective 102154.0000.
Tried aggregator 1 time.
MIP Presolve eliminated 0 rows and 1 columns.
MIP Presolve modified 331200 coefficients.
Reduced MIP has 60100 rows, 30400 columns, and 9148566 nonzeros.
Reduced MIP has 30000 binaries, 0 generals, 0 SOSs, and 0 indicators.
Presolve time = 7.61 sec. (4573.73 ticks)
Probing time = 0.24 sec. (98.44 ticks)
Tried aggregator 1 time.
Reduced MIP has 60100 rows, 30400 columns, and 9148566 nonzeros.
Reduced MIP has 30000 binaries, 0 generals, 0 SOSs, and 0 indicators.
Presolve time = 4.68 sec. (2261.48 ticks)
Probing time = 0.24 sec. (98.41 ticks)
Clique table members: 100.
MIP emphasis: balance optimality and feasibility.
MIP search method: dynamic search.
Parallel mode: none, using 1 thread.
Root relaxation solution time = 2.25 sec. (1008.47 ticks)

        Nodes                                         Cuts/
   Node  Left     Objective  IInf  Best Integer    Best Bound    ItCnt     Gap

*     0+    0                       102154.0000   2.30296e+07      522     --- 
      0     0   102186.8731    38   102154.0000   102186.8731      522    0.03%
      0     0   102158.4941    16   102154.0000      Cuts: 32      555    0.00%

Implied bound cuts applied:  12
Flow cuts applied:  10
Mixed integer rounding cuts applied:  5
Gomory fractional cuts applied:  5

Root node processing (before b&c):
  Real time             =   27.65 sec. (14306.14 ticks)
Sequential b&c:
  Real time             =    0.00 sec. (0.00 ticks)
                          ------------
Total (root+branch&cut) =   27.65 sec. (14306.14 ticks)
